Normalized Data/p10_21_normalized_split0.vrp
NAME:p10_21_NORMALIZED_split
BEST_KNOWN: 0
COMMENT: 0
DIMENSION: 804
CAPACITY: 100
EDGE_WEIGHT_FORMAT: FUNCTION
EDGE_WEIGHT_TYPE: EXACT_2D
NODE_COORD_SECTION
1 0.00000 0.00000
2 6 -27
3 6 -27
4 -38 16
5 -38 16
6 -38 16
7 -38 16
8 -38 16
9 -38 16
10 -1 -10
11 -1 -10
12 -1 -10
13 -1 -10
14 -29 -37
15 -29 -37
16 -29 -37
17 -29 -37
18 -27 -18
19 -27 -18
20 -27 -18
21 -27 -18
22 -27 -18
23 -27 -18
24 -7 -14
25 -7 -14
26 -7 -14
27 -7 -14
28 33 15
29 8 -7
30 8 -7
31 8 -7
32 8 -7
33 8 -7
34 8 -7
35 8 -7
36 -38 32
37 -38 32
38 -38 32
39 -38 32
40 -38 32
41 -38 32
42 -30 18
43 -30 18
44 -30 18
45 -30 18
46 -30 18
47 -30 18
48 -30 18
49 37 -25
50 37 -25
51 37 -25
52 -26 -20
53 -26 -20
54 -26 -20
55 -26 -20
56 -26 -20
57 -26 -20
58 18 42
59 18 42
60 18 42
61 18 42
62 18 42
63 -37 -12
64 -37 -12
65 -37 -12
66 -37 -12
67 17 1
68 17 1
69 17 1
70 17 1
71 17 1
72 -12 -47
73 -12 -47
74 -12 -47
75 -32 26
76 -32 26
77 -32 26
78 -32 26
79 27 -48
80 27 -48
81 27 -48
82 -23 -29
83 -23 -29
84 21 41
85 21 41
86 21 41
87 46 -37
88 46 -37
89 29 35
90 29 35
91 29 35
92 29 35
93 29 35
94 -43 19
95 -43 19
96 -43 19
97 -43 19
98 -43 19
99 41 -25
100 41 -25
101 41 -25
102 41 -25
103 41 -25
104 41 -25
105 39 -49
106 39 -49
107 -41 17
108 -41 17
109 -41 17
110 38 7
111 38 7
112 38 7
113 38 7
114 38 7
115 38 7
116 18 -19
117 18 -19
118 18 -19
119 18 -19
120 -11 -8
121 -11 -8
122 -11 -8
123 -11 -8
124 -11 -8
125 -11 -8
126 7 1
127 7 1
128 7 1
129 -45 -44
130 -45 -44
131 49 46
132 49 46
133 49 46
134 -39 -24
135 -39 -24
136 -39 -24
137 -39 -24
138 -39 -24
139 -2 -4
140 -2 -4
141 -2 -4
142 -2 -4
143 -18 6
144 -18 6
145 -18 6
146 33 -40
147 33 -40
148 33 -40
149 33 -40
150 33 -40
151 33 -40
152 -38 -10
153 -38 -10
154 -38 -10
155 -38 -10
156 -38 -10
157 -45 50
158 -45 50
159 -45 50
160 21 -36
161 21 -36
162 21 -36
163 21 -36
164 50 23
165 50 23
166 50 23
167 50 23
168 50 23
169 -50 22
170 -50 22
171 -50 22
172 -50 22
173 -50 22
174 15 48
175 15 48
176 15 48
177 -38 25
178 13 7
179 13 7
180 13 7
181 13 7
182 13 7
183 14 -26
184 14 -26
185 14 -26
186 14 -26
187 14 -26
188 14 -26
189 37 22
190 37 22
191 37 22
192 37 22
193 37 22
194 18 -20
195 18 -20
196 18 -20
197 18 -20
198 18 -20
199 14 -6
200 14 -6
201 14 -6
202 14 -6
203 14 -6
204 14 -6
205 -39 -14
206 -39 -14
207 -39 -14
208 -8 -48
209 -8 -48
210 -11 43
211 -11 43
212 -11 43
213 -11 43
214 -11 43
215 -17 23
216 -17 23
217 -17 23
218 -17 23
219 -48 6
220 -48 6
221 -48 6
222 -48 6
223 -18 -2
224 -18 -2
225 -18 -2
226 -18 -2
227 39 -15
228 39 -15
229 39 -15
230 39 -15
231 39 -15
232 16 -11
233 16 -11
234 16 -11
235 16 -11
236 -34 12
237 -34 12
238 -26 -34
239 -26 -34
240 -26 -34
241 -26 -34
242 -26 -34
243 34 -31
244 34 -31
245 34 -31
246 34 -31
247 34 -31
248 34 -31
249 18 -17
250 18 -17
251 18 -17
252 18 -17
253 18 -17
254 18 -17
255 2 -38
256 2 -38
257 2 -38
258 2 -38
259 2 -38
260 2 -38
261 -22 3
262 -22 3
263 -22 3
264 -22 3
265 -22 3
266 14 22
267 14 22
268 14 22
269 14 22
270 43 -49
271 43 -49
272 43 -49
273 43 -49
274 43 -49
275 43 -49
276 43 -49
277 -28 -37
278 -28 -37
279 -28 -37
280 -28 -37
281 48 -41
282 48 -41
283 17 -43
284 17 -43
285 17 -43
286 17 -43
287 17 -43
288 17 -43
289 47 3
290 47 3
291 47 3
292 -12 2
293 -12 2
294 -12 2
295 -12 2
296 -39 -40
297 -39 -40
298 31 -19
299 31 -19
300 31 -19
301 31 -19
302 31 -19
303 -9 16
304 -9 16
305 -15 44
306 -15 44
307 -15 44
308 40 -36
309 40 -36
310 40 -36
311 40 -36
312 40 -36
313 42 43
314 42 43
315 42 43
316 29 -23
317 29 -23
318 3 -16
319 3 -16
320 3 -16
321 3 -16
322 -40 18
323 -40 18
324 -40 18
325 -40 18
326 -5 24
327 -5 24
328 -5 24
329 -5 24
330 -5 24
331 -5 24
332 -5 24
333 -38 -12
334 -38 -12
335 -38 -12
336 21 -42
337 21 -42
338 21 -42
339 21 -42
340 21 -42
341 50 35
342 50 35
343 37 6
344 37 6
345 37 6
346 37 6
347 37 6
348 -36 1
349 -22 -39
350 -22 -39
351 25 -21
352 25 -21
353 25 -21
354 25 -21
355 46 -34
356 46 -34
357 46 -34
358 46 -34
359 46 -34
360 13 -37
361 13 -37
362 13 -37
363 13 -37
364 13 -37
365 19 3
366 19 3
367 19 3
368 19 3
369 -36 25
370 -36 25
371 -36 25
372 -36 25
373 -36 25
374 15 -44
375 15 -44
376 -4 44
377 -4 44
378 -4 44
379 -4 44
380 -4 44
381 -33 -40
382 -33 -40
383 -37 23
384 -37 23
385 -37 23
386 -37 23
387 -37 23
388 -1 8
389 -1 8
390 -1 8
391 -35 -26
392 -35 -26
393 -35 -26
394 -35 -26
395 -35 -26
396 -35 -26
397 -15 2
398 -39 4
399 -39 4
400 -39 4
401 -39 4
402 0 -48
403 0 -48
404 0 -48
405 0 -48
406 0 -48
407 0 -48
408 5 8
409 5 8
410 5 8
411 5 8
412 5 8
413 49 -2
414 49 -2
415 1 25
416 1 25
417 1 25
418 -30 -11
419 -30 -11
420 -30 -11
421 -30 -11
422 -30 -11
423 -30 -11
424 -28 15
425 -28 15
426 34 -9
427 34 -9
428 34 -9
429 34 -9
430 34 -9
431 40 32
432 40 32
433 40 32
434 40 32
435 -21 10
436 -21 10
437 -34 36
438 -34 36
439 -34 36
440 -34 36
441 -3 13
442 -3 13
443 -3 13
444 -3 13
445 -3 13
446 -3 13
447 47 17
448 47 17
449 47 17
450 47 17
451 -35 -47
452 -35 -47
453 -35 -47
454 31 7
455 31 7
456 31 7
457 -17 -31
458 -17 -31
459 1 -12
460 1 -12
461 38 -19
462 38 -19
463 38 -19
464 38 -19
465 38 -19
466 38 -19
467 3 -39
468 3 -39
469 3 -39
470 -42 -6
471 -42 -6
472 -42 -6
473 -42 -6
474 -44 -45
475 -44 -45
476 -29 -18
477 -29 -18
478 -29 -18
479 -29 -18
480 -46 -12
481 -46 -12
482 -46 -12
483 -46 -12
484 -46 -12
485 -46 -12
486 -29 -3
487 -29 -3
488 -29 -3
489 -29 -3
490 -29 -3
491 48 25
492 48 25
493 48 25
494 48 25
495 12 35
496 12 35
497 12 35
498 -29 -7
499 -29 -7
500 -29 -7
501 -29 -7
502 -29 -7
503 -29 -7
504 18 16
505 18 16
506 18 16
507 -36 -47
508 -36 -47
509 -35 38
510 -35 38
511 -35 38
512 -35 38
513 -32 -39
514 -32 -39
515 -32 -39
516 -32 -39
517 -32 -39
518 -32 -39
519 23 46
520 23 46
521 23 46
522 23 46
523 23 46
524 23 46
525 35 -27
526 35 -27
527 35 -27
528 35 -27
529 35 -27
530 35 -27
531 35 16
532 35 16
533 35 16
534 35 16
535 35 16
536 -33 -21
537 -33 -21
538 -33 -21
539 -33 -21
540 -6 46
541 -6 46
542 -6 46
543 40 -23
544 40 -23
545 -32 2
546 -32 2
547 -32 2
548 37 -12
549 37 -12
550 37 -12
551 37 -12
552 37 -12
553 37 -12
554 9 46
555 9 46
556 -30 -21
557 -30 -21
558 -30 -21
559 -38 6
560 -38 6
561 -38 6
562 -38 6
563 26 13
564 26 13
565 26 13
566 26 13
567 26 13
568 12 43
569 12 43
570 44 -27
571 44 -27
572 44 -27
573 44 -27
574 44 -27
575 44 -27
576 -33 17
577 -33 17
578 -33 17
579 -9 20
580 -9 20
581 -9 20
582 -9 20
583 -41 -2
584 -41 -2
585 -41 -2
586 -41 -2
587 -41 -2
588 -24 -28
589 -24 -28
590 -24 -28
591 -24 -28
592 -24 -28
593 -24 -28
594 -30 42
595 -30 42
596 -30 42
597 -30 42
598 -30 42
599 47 -27
600 47 -27
601 19 39
602 19 39
603 23 21
604 23 21
605 23 21
606 23 21
607 47 -3
608 47 -3
609 47 -3
610 47 -3
611 47 -3
612 50 10
613 50 10
614 50 10
615 50 10
616 -7 -30
617 -7 -30
618 -7 -30
619 -7 -30
620 -7 -30
621 -13 49
622 -13 49
623 -13 49
624 9 35
625 9 35
626 9 35
627 9 35
628 9 35
629 8 -29
630 8 -29
631 8 -29
632 8 -29
633 8 -29
634 8 -29
635 -35 -45
636 -35 -45
637 -35 -45
638 -35 -45
639 -45 15
640 -45 15
641 40 -10
642 40 -10
643 40 -10
644 0 24
645 0 24
646 37 -38
647 37 -38
648 37 -38
649 -39 -42
650 -39 -42
651 -39 -42
652 -8 -37
653 -8 -37
654 -8 -37
655 -8 -37
656 6 48
657 6 48
658 6 48
659 6 48
660 6 48
661 -47 12
662 -47 12
663 -47 12
664 50 -46
665 50 -46
666 50 -46
667 50 -46
668 50 -46
669 50 -46
670 50 -46
671 -30 3
672 -30 3
673 -30 3
674 -30 3
675 -30 3
676 -30 3
677 -12 -45
678 -12 -45
679 -12 -45
680 -12 -45
681 -12 -45
682 15 -43
683 15 -43
684 15 -43
685 15 -43
686 15 -43
687 -34 -20
688 -34 -20
689 -34 -20
690 -34 -20
691 -34 -20
692 33 -14
693 33 -14
694 33 -14
695 40 -38
696 40 -38
697 40 -38
698 40 -38
699 40 -38
700 -25 -5
701 -25 -5
702 -18 31
703 -18 31
704 -18 31
705 -18 31
706 -18 31
707 49 47
708 49 47
709 49 47
710 49 47
711 49 47
712 -10 14
713 -10 14
714 -10 14
715 -10 14
716 1 7
717 1 7
718 1 7
719 1 7
720 1 7
721 -13 -32
722 -13 -32
723 -13 -32
724 -13 -32
725 -15 -6
726 -15 -6
727 -15 -6
728 -15 -6
729 -15 -6
730 -15 -6
731 -42 -17
732 -42 -17
733 -14 -37
734 -14 -37
735 -14 -37
736 -33 5
737 -33 5
738 34 -45
739 34 -45
740 34 -45
741 34 -45
742 -15 -33
743 -15 -33
744 -15 -33
745 -47 -29
746 -47 -29
747 -4 -17
748 -4 -17
749 -4 -17
750 47 -31
751 47 -31
752 47 -31
753 -43 -27
754 -43 -27
755 -43 -27
756 -43 -27
757 -43 -27
758 -43 -27
759 -44 43
760 -44 43
761 -44 43
762 -44 43
763 -14 10
764 -14 10
765 -14 10
766 -14 10
767 -14 10
768 -8 1
769 -8 1
770 -28 -37
771 -28 -37
772 -28 -37
773 -49 12
774 -49 12
775 -49 12
776 -49 12
777 -49 12
778 -49 12
779 29 35
780 29 35
781 29 35
782 29 35
783 29 35
784 29 35
785 8 -49
786 8 -49
787 8 -49
788 8 -49
789 8 -49
790 44 -45
791 44 -45
792 44 -45
793 20 16
794 20 16
795 20 37
796 20 37
797 20 37
798 20 37
799 20 37
800 -21 39
801 -21 39
802 -21 39
803 -21 39
804 -21 39
DEMAND_SECTION
1 0
2 20
3 1
4 20
5 10
6 5
7 1
8 1
9 1
10 20
11 10
12 5
13 1
14 20
15 20
16 1
17 1
18 20
19 20
20 5
21 1
22 1
23 1
24 20
25 10
26 1
27 1
28 20
29 20
30 20
31 5
32 1
33 1
34 1
35 1
36 20
37 10
38 1
39 1
40 1
41 1
42 20
43 20
44 5
45 1
46 1
47 1
48 1
49 20
50 20
51 5
52 20
53 5
54 1
55 1
56 1
57 1
58 20
59 20
60 1
61 1
62 1
63 20
64 1
65 1
66 1
67 10
68 1
69 1
70 1
71 1
72 20
73 10
74 5
75 20
76 5
77 1
78 1
79 20
80 10
81 1
82 20
83 5
84 20
85 1
86 1
87 10
88 5
89 20
90 1
91 1
92 1
93 1
94 20
95 1
96 1
97 1
98 1
99 20
100 10
101 5
102 1
103 1
104 1
105 10
106 5
107 20
108 10
109 1
110 10
111 5
112 1
113 1
114 1
115 1
116 20
117 1
118 1
119 1
120 20
121 5
122 1
123 1
124 1
125 1
126 20
127 1
128 1
129 20
130 20
131 20
132 10
133 1
134 20
135 20
136 5
137 1
138 1
139 20
140 10
141 5
142 1
143 20
144 10
145 1
146 20
147 5
148 1
149 1
150 1
151 1
152 20
153 1
154 1
155 1
156 1
157 20
158 20
159 10
160 10
161 1
162 1
163 1
164 20
165 10
166 5
167 1
168 1
169 20
170 20
171 5
172 1
173 1
174 20
175 10
176 1
177 20
178 20
179 20
180 5
181 1
182 1
183 20
184 20
185 1
186 1
187 1
188 1
189 20
190 5
191 1
192 1
193 1
194 10
195 5
196 1
197 1
198 1
199 20
200 10
201 5
202 1
203 1
204 1
205 20
206 20
207 5
208 20
209 20
210 20
211 20
212 1
213 1
214 1
215 10
216 5
217 1
218 1
219 20
220 20
221 5
222 1
223 10
224 1
225 1
226 1
227 20
228 10
229 5
230 1
231 1
232 20
233 20
234 1
235 1
236 20
237 1
238 20
239 20
240 5
241 1
242 1
243 20
244 5
245 1
246 1
247 1
248 1
249 20
250 5
251 1
252 1
253 1
254 1
255 20
256 20
257 1
258 1
259 1
260 1
261 20
262 20
263 1
264 1
265 1
266 20
267 10
268 5
269 1
270 20
271 10
272 5
273 1
274 1
275 1
276 1
277 20
278 10
279 5
280 1
281 20
282 1
283 20
284 5
285 1
286 1
287 1
288 1
289 10
290 5
291 1
292 20
293 10
294 5
295 1
296 20
297 10
298 20
299 20
300 5
301 1
302 1
303 20
304 20
305 20
306 10
307 5
308 20
309 20
310 5
311 1
312 1
313 20
314 5
315 1
316 10
317 5
318 20
319 10
320 1
321 1
322 10
323 5
324 1
325 1
326 20
327 20
328 5
329 1
330 1
331 1
332 1
333 20
334 5
335 1
336 20
337 1
338 1
339 1
340 1
341 20
342 5
343 20
344 5
345 1
346 1
347 1
348 20
349 20
350 1
351 20
352 10
353 1
354 1
355 20
356 20
357 1
358 1
359 1
360 20
361 1
362 1
363 1
364 1
365 20
366 10
367 1
368 1
369 20
370 5
371 1
372 1
373 1
374 20
375 10
376 20
377 20
378 5
379 1
380 1
381 20
382 10
383 20
384 10
385 5
386 1
387 1
388 10
389 1
390 1
391 20
392 10
393 1
394 1
395 1
396 1
397 20
398 20
399 10
400 5
401 1
402 10
403 5
404 1
405 1
406 1
407 1
408 20
409 10
410 1
411 1
412 1
413 20
414 20
415 20
416 20
417 10
418 10
419 5
420 1
421 1
422 1
423 1
424 20
425 10
426 20
427 10
428 5
429 1
430 1
431 20
432 1
433 1
434 1
435 20
436 1
437 20
438 10
439 5
440 1
441 20
442 10
443 1
444 1
445 1
446 1
447 20
448 1
449 1
450 1
451 20
452 1
453 1
454 20
455 20
456 1
457 20
458 10
459 10
460 5
461 20
462 10
463 5
464 1
465 1
466 1
467 20
468 5
469 1
470 20
471 10
472 5
473 1
474 20
475 5
476 20
477 10
478 1
479 1
480 20
481 20
482 5
483 1
484 1
485 1
486 10
487 1
488 1
489 1
490 1
491 10
492 1
493 1
494 1
495 20
496 10
497 1
498 20
499 10
500 1
501 1
502 1
503 1
504 10
505 5
506 1
507 20
508 5
509 10
510 1
511 1
512 1
513 20
514 5
515 1
516 1
517 1
518 1
519 20
520 20
521 5
522 1
523 1
524 1
525 20
526 10
527 5
528 1
529 1
530 1
531 20
532 10
533 5
534 1
535 1
536 20
537 10
538 5
539 1
540 10
541 5
542 1
543 10
544 5
545 20
546 10
547 5
548 20
549 20
550 5
551 1
552 1
553 1
554 20
555 20
556 20
557 20
558 1
559 20
560 20
561 1
562 1
563 20
564 20
565 1
566 1
567 1
568 20
569 5
570 20
571 10
572 5
573 1
574 1
575 1
576 20
577 10
578 5
579 10
580 5
581 1
582 1
583 20
584 20
585 1
586 1
587 1
588 20
589 5
590 1
591 1
592 1
593 1
594 20
595 10
596 1
597 1
598 1
599 20
600 10
601 20
602 20
603 20
604 10
605 5
606 1
607 20
608 1
609 1
610 1
611 1
612 20
613 5
614 1
615 1
616 10
617 5
618 1
619 1
620 1
621 10
622 5
623 1
624 20
625 10
626 5
627 1
628 1
629 20
630 5
631 1
632 1
633 1
634 1
635 20
636 20
637 1
638 1
639 10
640 5
641 20
642 10
643 1
644 20
645 5
646 20
647 5
648 1
649 20
650 20
651 1
652 10
653 1
654 1
655 1
656 20
657 10
658 5
659 1
660 1
661 20
662 1
663 1
664 20
665 20
666 5
667 1
668 1
669 1
670 1
671 20
672 5
673 1
674 1
675 1
676 1
677 20
678 1
679 1
680 1
681 1
682 20
683 5
684 1
685 1
686 1
687 20
688 10
689 5
690 1
691 1
692 20
693 1
694 1
695 10
696 1
697 1
698 1
699 1
700 10
701 5
702 20
703 1
704 1
705 1
706 1
707 10
708 5
709 1
710 1
711 1
712 20
713 1
714 1
715 1
716 20
717 5
718 1
719 1
720 1
721 20
722 20
723 5
724 1
725 20
726 10
727 5
728 1
729 1
730 1
731 20
732 5
733 20
734 10
735 5
736 10
737 5
738 10
739 5
740 1
741 1
742 20
743 20
744 5
745 10
746 5
747 20
748 1
749 1
750 20
751 5
752 1
753 10
754 5
755 1
756 1
757 1
758 1
759 20
760 10
761 1
762 1
763 10
764 5
765 1
766 1
767 1
768 20
769 5
770 20
771 5
772 1
773 20
774 10
775 5
776 1
777 1
778 1
779 20
780 10
781 1
782 1
783 1
784 1
785 10
786 5
787 1
788 1
789 1
790 20
791 20
792 1
793 20
794 10
795 20
796 1
797 1
798 1
799 1
800 10
801 5
802 1
803 1
804 1
DEPOT_SECTION
1
-1
EOF