Normalized Data/p10_21_normalized_split0.sol
803 -2 1 630 633 631 632 629 468 467 466 254 259 255 256 258 257 -9 11 748 747 746 318 320 319 317 29 -10 12 617 618 619 616 615 721 723 722 742 741 743 -15 16 637 635 634 636 506 507 450 451 452 278 -21 18 22 20 19 17 587 592 588 81 82 -24 25 23 26 720 733 732 734 651 654 653 652 -27 533 532 531 534 530 454 455 453 366 -30 116 117 118 195 194 196 197 350 351 352 353 299 298 297 300 301 203 202 201 -31 32 28 34 33 234 231 232 198 200 199 -43 41 42 577 575 576 423 -45 47 370 369 372 368 371 40 39 35 36 38 37 437 436 439 438 -46 44 385 386 383 382 384 176 97 94 93 95 96 324 322 323 321 -53 55 52 51 557 555 556 477 476 475 478 -56 54 393 391 390 394 395 392 536 535 537 689 686 418 422 419 420 -60 58 57 59 61 519 521 523 518 522 520 84 85 797 796 -63 62 65 64 332 206 204 205 421 417 727 -67 68 70 111 112 109 113 110 114 613 614 612 611 448 447 446 449 188 189 190 192 191 -69 66 346 345 289 288 290 413 412 610 609 606 607 608 427 428 429 -75 758 760 761 759 156 158 157 511 508 509 510 -76 74 77 597 595 596 594 593 799 801 800 802 803 704 702 703 701 705 713 712 714 -87 86 280 281 669 665 663 664 666 668 667 694 697 698 696 695 251 -92 89 90 782 780 91 783 88 778 779 781 602 605 603 604 505 504 -99 100 103 101 102 98 574 573 571 572 569 570 543 542 464 465 462 -123 124 538 134 133 136 135 137 756 752 754 757 755 753 745 744 688 687 690 -126 127 125 365 364 367 179 180 177 178 181 -128 129 474 473 296 295 -139 138 140 141 119 122 120 121 726 728 729 725 724 -145 146 150 148 147 740 739 737 738 79 80 78 335 338 339 336 337 -149 105 104 272 271 273 274 275 270 269 790 791 789 244 246 245 -151 469 472 471 470 582 584 586 583 585 -184 187 159 161 160 162 283 286 284 287 282 285 374 362 361 360 359 363 628 -185 186 182 183 193 115 249 252 250 253 248 -207 208 73 71 72 679 676 677 680 678 -225 223 224 222 260 261 263 396 294 293 767 -233 50 49 48 529 525 527 524 528 526 316 315 -236 235 106 107 108 5 4 8 3 6 7 424 -240 239 241 238 237 348 349 457 456 -243 242 247 311 308 307 310 309 646 647 645 -262 264 673 674 670 544 545 488 485 486 487 489 498 497 500 499 -265 495 494 496 623 624 625 441 442 445 444 443 -266 267 268 795 794 798 83 600 601 -276 279 277 771 770 769 14 13 590 589 591 -292 291 143 144 142 434 435 763 766 762 765 764 -302 303 440 388 389 387 718 716 715 719 717 -305 304 306 620 621 622 211 213 212 210 209 331 328 330 329 -313 312 314 708 709 707 706 710 131 130 132 340 341 -325 326 327 579 578 581 580 217 216 214 215 711 -342 344 343 164 167 165 163 166 490 493 492 491 432 433 431 430 -354 357 358 355 356 751 749 750 598 599 -378 376 377 379 375 539 541 540 659 655 657 658 656 -408 503 792 793 562 563 564 565 566 -411 407 410 409 416 415 414 644 643 -425 426 551 549 548 550 552 547 691 692 693 -459 458 401 404 403 402 406 405 787 788 784 786 785 373 681 682 683 685 684 -463 460 461 227 226 228 230 229 640 642 641 -502 501 333 334 730 731 481 479 480 483 484 482 153 152 154 155 699 700 -514 516 513 512 515 517 380 381 650 648 649 -553 554 174 173 175 568 567 627 626 -639 638 171 170 168 169 172 773 777 775 772 776 774 -660 662 661 218 221 220 219 347 546 768 -672 671 675 400 398 397 399 558 561 560 559 736 735 0 





OBJ=
5582.628
BEST_KNOWN=
0.000